p cnf 114 172
-58 53 0
-58 54 0
58 -53 -54 0
-59 49 0
-59 50 0
59 -49 -50 0
-60 47 0
-60 48 0
60 -47 -48 0
-61 39 0
-61 40 0
61 -39 -40 0
-62 37 0
-62 38 0
62 -37 -38 0
-63 35 0
-63 36 0
63 -35 -36 0
-64 33 0
-64 34 0
64 -33 -34 0
-65 29 0
-65 30 0
65 -29 -30 0
-66 31 0
-66 32 0
66 -31 -32 0
-67 -65 0
-67 -66 0
67 65 66 0
-68 -64 0
-68 67 0
68 64 -67 0
-69 -63 0
-69 68 0
69 63 -68 0
-70 -62 0
-70 69 0
70 62 -69 0
-71 -61 0
-71 70 0
71 61 -70 0
-72 41 0
-72 42 0
72 -41 -42 0
-73 71 0
-73 -72 0
73 -71 72 0
-74 43 0
-74 44 0
74 -43 -44 0
-75 73 0
-75 -74 0
75 -73 74 0
-76 45 0
-76 46 0
76 -45 -46 0
-77 75 0
-77 -76 0
77 -75 76 0
-78 -60 0
-78 77 0
78 60 -77 0
-79 -59 0
-79 78 0
79 59 -78 0
-80 51 0
-80 52 0
80 -51 -52 0
-81 79 0
-81 -80 0
81 -79 80 0
-82 -58 0
-82 81 0
82 58 -81 0
-83 55 0
-83 56 0
83 -55 -56 0
-84 82 0
-84 -83 0
84 -82 83 0
-85 -57 0
-85 -84 0
85 57 84 0
-86 23 0
-86 24 0
86 -23 -24 0
-87 19 0
-87 20 0
87 -19 -20 0
-88 13 0
-88 14 0
88 -13 -14 0
-89 9 0
-89 10 0
89 -9 -10 0
-90 7 0
-90 8 0
90 -7 -8 0
-91 5 0
-91 6 0
91 -5 -6 0
-92 3 0
-92 4 0
92 -3 -4 0
-93 1 0
-93 2 0
93 -1 -2 0
-94 -92 0
-94 -93 0
94 92 93 0
-95 -91 0
-95 94 0
95 91 -94 0
-96 -90 0
-96 95 0
96 90 -95 0
-97 -89 0
-97 96 0
97 89 -96 0
-98 11 0
-98 12 0
98 -11 -12 0
-99 97 0
-99 -98 0
99 -97 98 0
-100 -88 0
-100 99 0
100 88 -99 0
-101 15 0
-101 16 0
101 -15 -16 0
-102 100 0
-102 -101 0
102 -100 101 0
-103 17 0
-103 18 0
103 -17 -18 0
-104 102 0
-104 -103 0
104 -102 103 0
-105 -87 0
-105 104 0
105 87 -104 0
-106 21 0
-106 22 0
106 -21 -22 0
-107 105 0
-107 -106 0
107 -105 106 0
-108 -86 0
-108 107 0
108 86 -107 0
-109 25 0
-109 26 0
109 -25 -26 0
-110 108 0
-110 -109 0
110 -108 109 0
-111 27 0
-111 28 0
111 -27 -28 0
-112 110 0
-112 -111 0
112 -110 111 0
-113 57 0
-113 -112 0
113 -57 112 0
-114 -85 0
-114 -113 0
114 85 113 0
-114 0
